1864467
62,27,49,43,9,32,56,17,13,51,30,21,42,6,37,66,65,33,45,54,25,10,5,40,63,24,29,28,59,22,39,20,23,60,2,41,55,31,11,4,48,18,53,46,0,12,19,3,47,64,1,44,26,16,8,57,14,67,34,50,38,61,36,52,7,35,58,15
